c turning on binary mode checking
c parsing input formula with 259840 variables and 1039929 clauses
c finished parsing, read 39517732 bytes from proof file
c detected empty clause; start verification via backward checking
c 64456 of 1039929 clauses in core                            
c 116421 of 798909 lemmas in core using 1342620 resolution steps
c 0 RAT lemmas in core; 15842 redundant literals in core lemmas
s VERIFIED
c verification time: 7.458 seconds
